p cnf 2982 2675
c ind 1552 1553 1554 1555 1556 1557 1558 1559 1560 1561 0
c ind 1562 1563 1564 1565 1566 1567 1568 1569 1570 1571 0
c ind 1572 1573 1574 1575 1576 1577 1578 1579 1580 1581 0
c ind 1582 1583 1687 1688 1689 1690 1691 1692 1693 1694 0
c ind 1695 1696 1697 1698 1699 1700 1701 1702 1703 1704 0
c ind 1705 1706 1707 1708 1709 1710 1711 1712 1713 1714 0
c ind 1715 1716 1717 1718 1719 1720 1721 1722 1723 1724 0
c ind 1725 1726 1727 1728 1729 1730 1731 1732 1454 1455 0
c ind 1456 1457 1458 1459 1460 1461 1462 1463 1464 1465 0
c ind 1466 1467 1468 1469 1470 1471 1472 1473 1474 1475 0
c ind 1476 1477 1478 1479 1480 1481 1482 1483 1484 1485 0
c ind 1486 1487 1488 1489 1490 1491 1492 1493 1494 1495 0
c ind 1496 1497 1498 1499 1500 1501 1502 1503 1504 1505 0
c ind 1397 1398 1399 1400 1401 1402 1403 1404 1405 1406 0
c ind 1407 1408 1409 1410 1411 1412 1413 1414 1415 1416 0
c ind 1417 1418 1419 1420 1421 1422 1423 1424 1425 1426 0
c ind 1427 1428 1429 1430 1431 1432 979 1433 1434 925 0
c ind 926 1392 1393 1394 1395 1396 982 983 984 985 0
c ind 986 987 988 989 990 991 992 993 994 995 0
c ind 1435 1436 996 997 1437 1438 998 999 1000 1001 0
c ind 1002 1003 1004 1051 1052 1053 1054 1055 1056 1057 0
c ind 980 1058 1059 1439 1060 1440 1061 1062 1441 1063 0
c ind 1442 1064 1065 1066 1067 1068 1069 1070 1071 1072 0
c ind 1073 1028 1443 1029 1030 1031 1032 1033 1444 1034 0
c ind 1035 1445 1036 1037 1446 1038 1447 1039 1040 1041 0
c ind 1042 1043 1044 1045 1046 1047 1048 1049 1050 1074 0
c ind 1448 1075 981 1076 1077 1449 1078 1450 1079 1080 0
c ind 1081 1451 1082 1452 1083 1084 1085 1086 1087 1088 0
c ind 1089 1090 1091 1092 1093 1094 1095 1096 1005 1006 0
c ind 1007 1008 1453 1009 1584 1010 1011 1012 1585 1586 0
c ind 1013 1014 1015 1016 1017 1018 1019 1020 1021 1022 0
c ind 1587 1023 922 1024 1025 1026 1027 899 900 1588 0
c ind 901 1589 902 903 1590 1591 904 905 906 907 0
c ind 908 909 910 911 1592 912 1593 913 914 915 0
c ind 1594 916 917 918 919 920 921 927 928 929 0
c ind 930 931 932 933 934 1595 935 936 937 938 0
c ind 1596 939 1597 940 1598 941 1599 942 943 944 0
c ind 945 946 947 948 949 876 877 878 879 880 0
c ind 881 882 883 884 885 886 887 888 889 890 0
c ind 891 892 893 894 895 896 923 897 898 950 0
c ind 951 952 953 954 955 956 957 958 959 960 0
c ind 961 962 963 964 965 966 967 968 969 970 0
c ind 971 972 973 974 975 976 977 978 1506 1507 0
c ind 1508 1509 1510 1511 1512 1513 924 1514 1515 1516 0
c ind 1517 1518 1519 1520 1521 1522 1523 1524 1525 1526 0
c ind 1527 1528 1529 1530 1531 1532 1533 1534 1535 1536 0
c ind 1537 1654 1655 1656 1657 1658 1659 1660 1661 1662 0
c ind 1663 1664 1665 1666 1667 1668 1669 1670 1671 1672 0
c ind 1673 1674 1675 1676 1677 1678 1679 1680 1681 1682 0
c ind 1683 1684 1685 1686 1538 1539 1540 1541 1542 1543 0
c ind 1544 1545 1546 1547 1548 1549 1550 1551 0
730 -731 842 0
730 -731 759 0
-730 731 0
-759 -842 -730 0
731 -732 -746 -758 0
-731 732 0
-731 746 0
-731 758 0
732 -733 742 0
-732 733 0
-732 -742 0
733 734 738 -1073 -1078 0
-733 1078 0
-733 -738 0
-733 1073 0
-733 -734 0
735 1079 734 1080 1081 0
-734 -735 0
-734 -1081 0
-734 -1079 0
-734 -1080 0
735 736 -1084 0
735 736 737 -1085 0
-735 -736 0
-735 -737 1084 0
-735 1084 1085 0
736 1082 -1083 0
-736 -1082 0
-736 1083 0
737 1090 1091 0
737 1006 1007 1090 0
-737 -1090 0
-737 -1007 -1091 0
-737 -1006 -1091 0
739 1028 738 1029 1030 0
-738 -739 0
-738 -1030 0
-738 -1028 0
-738 -1029 0
739 740 -1033 0
739 740 741 -1034 0
-739 -740 0
-739 -741 1033 0
-739 1033 1034 0
740 1031 -1032 0
-740 -1031 0
-740 1032 0
741 1039 1040 0
741 1039 1047 1048 0
-741 -1039 0
-741 -1040 -1047 0
-741 -1040 -1048 0
-743 -1001 742 0
-745 -1001 742 0
-744 -1001 742 0
-742 1001 0
-742 743 744 745 0
743 -1053 1054 1055 0
-743 1053 0
-743 -1055 0
-743 -1054 0
744 1053 1056 1057 0
-744 -1053 0
-744 -1057 0
-744 -1056 0
745 -1002 1003 1004 0
-745 1002 0
-745 -1004 0
-745 -1003 0
746 747 750 -753 0
746 747 751 -753 0
-746 -747 0
-746 753 0
-750 -751 -746 0
-748 -749 747 -887 0
-748 -749 747 -888 0
-747 749 0
-747 748 0
-747 887 888 0
748 890 891 892 893 0
-748 -893 0
-748 -892 0
-748 -890 0
-748 -891 0
749 -884 -885 -886 889 0
-749 886 0
-749 -889 0
-749 884 0
-749 885 0
750 -898 -956 0
-750 898 0
-750 956 0
751 -752 -957 958 0
-751 957 0
-751 -958 0
-751 752 0
752 960 -961 -962 963 0
-752 -960 0
-752 -963 0
-752 962 0
-752 961 0
753 -754 979 0
753 -754 757 0
-753 754 0
-757 -979 -753 0
754 -755 -756 -1512 -1566 0
-754 756 0
-754 1512 0
-754 755 0
-754 1566 0
755 -1657 -1686 -1698 -1727 0
-755 1727 0
-755 1657 0
-755 1698 0
-755 1686 0
756 -1397 -1477 0
-756 1397 0
-756 1477 0
757 930 931 932 0
-757 -930 0
-757 -932 0
-757 -931 0
758 -922 924 0
758 -923 -981 0
758 -922 -923 0
758 924 -981 0
923 -924 -758 0
922 981 -758 0
759 -760 804 -812 1734 0
759 -760 -804 -812 -1734 0
-759 812 0
-759 804 -1734 0
-759 760 0
-759 -804 1734 0
760 761 779 -790 0
760 761 779 1384 0
-760 -779 0
-760 -761 0
-760 790 -1384 0
761 -762 1605 0
761 762 -1605 0
-761 -762 -1605 0
-761 762 1605 0
762 -763 -754 0
762 777 -754 0
754 -762 0
-762 763 -777 0
763 -764 -776 -1438 0
763 764 -765 -776 0
-763 776 0
-763 -764 1438 0
-763 764 765 0
764 1507 -1509 0
-764 -1507 0
-764 1509 0
765 -766 -1437 0
765 766 -767 0
-765 -766 1437 0
-765 766 767 0
766 952 -954 0
-766 -952 0
-766 954 0
767 768 747 775 0
767 768 747 -774 0
-747 -767 0
-767 -768 0
-767 774 -775 0
768 770 -979 1436 0
768 769 770 -979 0
-768 979 0
-768 -770 0
-768 -769 -1436 0
769 938 -940 0
-769 -938 0
-769 940 0
770 -771 772 0
-770 771 0
-770 -772 0
769 771 -930 0
769 771 -931 0
769 771 -932 0
-769 -771 0
-771 930 931 932 0
772 -773 1435 0
732 772 773 0
772 773 924 0
-772 -773 -1435 0
-772 773 -732 -924 0
773 912 -914 0
-773 -912 0
-773 914 0
774 877 -732 -924 0
773 774 -732 -924 0
732 -774 0
-774 924 0
-773 -774 -877 0
773 775 979 0
775 979 1435 0
775 877 979 0
-775 -979 0
-773 -775 -877 -1435 0
776 -898 956 0
-776 898 0
-776 -956 0
777 778 -898 0
765 767 777 0
767 777 778 0
765 777 -898 0
-767 -777 898 0
-765 -777 -778 0
751 778 -898 -956 0
-778 898 0
-778 956 0
-751 -778 0
779 780 -1742 0
-779 1742 0
-779 -780 0
780 -781 -754 0
780 789 -754 0
754 -780 0
-780 781 -789 0
764 -776 781 -782 0
-764 -776 781 -1599 0
776 -781 0
764 -781 782 0
-764 -781 1599 0
-766 782 -1598 0
766 782 -783 0
-766 -782 1598 0
766 -782 783 0
783 784 747 788 0
783 784 747 -787 0
-747 -783 0
-783 -784 0
-783 787 -788 0
784 -786 -877 979 0
784 785 877 979 0
-784 -979 0
-784 786 -877 0
-784 -785 877 0
785 -1595 -732 0
-785 1595 0
732 -785 0
-773 786 1596 0
773 785 786 0
-773 -786 -1596 0
773 -785 -786 0
-771 786 787 0
771 -787 0
-786 -787 0
769 788 -979 0
788 -979 1597 0
-788 979 0
-769 -788 -1597 0
782 789 -898 0
778 783 789 0
782 783 789 0
778 789 -898 0
-778 -782 -789 0
-783 -789 898 0
790 801 -754 0
790 791 -754 -794 0
754 -790 0
-790 -791 -801 0
-790 794 -801 0
791 -793 -877 979 0
791 792 877 979 0
-791 -979 0
-791 793 -877 0
-791 -792 877 0
792 -1448 -732 0
-792 1448 0
732 -792 0
-773 793 1449 0
773 792 793 0
-773 -793 -1449 0
773 -792 -793 0
794 -795 800 0
-771 793 794 -795 0
-794 795 0
771 -794 -800 0
-793 -794 -800 0
795 796 747 0
-747 -795 0
-795 -796 0
-766 796 -898 0
796 797 -898 0
-796 898 0
766 -796 -797 0
764 797 956 0
797 798 -956 0
797 -799 -956 0
-764 -797 956 0
-797 -798 799 -956 0
798 -957 958 0
-798 957 0
-798 -958 0
752 799 -898 0
-799 898 0
-752 -799 0
769 800 -979 0
800 -979 1450 0
-800 979 0
-769 -800 -1450 0
764 801 802 0
776 801 802 0
801 802 1452 0
-801 -802 0
-764 -776 -801 -1452 0
-766 802 -803 -1451 0
-802 1451 0
766 -802 0
-802 803 0
-797 803 -898 0
-803 898 0
797 -803 0
804 810 -754 0
804 805 -754 -808 0
754 -804 0
-804 -805 -810 0
-804 808 -810 0
805 -807 -877 979 0
805 806 877 979 0
-805 -979 0
-805 807 -877 0
-805 -806 877 0
806 -1587 -732 0
-806 1587 0
732 -806 0
-773 807 1588 0
773 806 807 0
-773 -807 -1588 0
773 -806 -807 0
-795 808 809 0
-771 -795 807 808 0
795 -808 0
771 -808 -809 0
-807 -808 -809 0
769 809 -979 0
809 -979 1589 0
-809 979 0
-769 -809 -1589 0
764 810 811 0
776 810 811 0
810 811 1591 0
-810 -811 0
-764 -776 -810 -1591 0
-766 -803 811 -1590 0
-811 1590 0
766 -811 0
803 -811 0
812 -813 -1384 0
790 812 -813 0
-812 813 0
-790 -812 1384 0
813 -841 -814 1364 0
813 841 -814 -1364 0
-813 814 0
-813 -841 -1364 0
-813 841 1364 0
814 822 823 -831 0
814 -815 823 -831 0
-814 831 0
-814 -823 0
815 -822 -814 0
764 -776 815 -816 0
-764 -776 815 -1442 0
776 -815 0
764 -815 816 0
-764 -815 1442 0
-766 816 -1441 0
766 816 -817 0
-766 -816 1441 0
766 -816 817 0
817 818 747 821 0
817 818 747 -820 0
-747 -817 0
-817 -818 0
-817 820 -821 0
818 -819 -877 979 0
732 818 877 979 0
-818 -979 0
-818 819 -877 0
-818 877 -732 0
732 773 819 0
-773 819 1439 0
773 -819 -732 0
-773 -819 -1439 0
-771 819 820 0
771 -820 0
-819 -820 0
769 821 -979 0
821 -979 1440 0
-821 979 0
-769 -821 -1440 0
816 822 -898 0
778 817 822 0
816 817 822 0
778 822 -898 0
-778 -816 -822 0
-817 -822 898 0
825 898 823 0
766 824 823 825 0
-823 -825 0
-823 -824 -898 0
-766 -823 -898 0
-764 824 956 -1586 0
764 -824 0
-824 1586 0
-824 -956 0
825 826 747 830 0
825 826 747 -829 0
-747 -825 0
-825 -826 0
-825 829 -830 0
826 -828 -877 979 0
826 827 877 979 0
-826 -979 0
-826 828 -877 0
-826 -827 877 0
827 -923 -732 0
-827 923 0
732 -827 0
-773 828 1453 0
773 827 828 0
-773 -828 -1453 0
773 -827 -828 0
-771 828 829 0
771 -829 0
-828 -829 0
769 830 -979 0
830 -979 1584 0
-830 979 0
-769 -830 -1584 0
831 -832 -834 -839 0
831 834 -836 -839 0
-831 839 0
832 -834 -831 0
834 836 -831 0
832 -1434 -1594 0
832 833 -1594 0
-832 1594 0
-832 -833 1434 0
833 -1426 -733 1428 0
-833 1426 0
-833 -1428 0
733 -833 0
834 -878 1019 0
834 835 1019 0
834 -877 1019 0
-834 -1019 0
-834 -835 877 878 0
835 879 880 881 979 0
-835 -979 0
-835 -881 0
-835 -879 0
-835 -880 0
836 838 -733 -1432 0
836 837 -733 838 0
733 -836 0
-836 -838 0
-836 -837 1432 0
837 -1426 1428 0
-837 1426 0
-837 -1428 0
-742 838 1426 0
838 1395 1426 1593 0
-838 -1426 0
-838 -1395 742 0
-838 -1593 742 0
-824 839 -746 0
796 839 -746 0
839 -840 -746 0
746 -839 0
-796 824 -839 840 0
-797 840 -1585 0
-840 1585 0
797 -840 0
-833 841 -746 0
746 -841 0
833 -841 0
842 -843 853 -1379 0
842 843 853 1379 0
-842 -853 0
-842 843 -1379 0
-842 -843 1379 0
843 -844 -754 0
843 852 -754 0
754 -843 0
-843 844 -852 0
764 -776 844 -845 0
-764 -776 844 -1447 0
776 -844 0
764 -844 845 0
-764 -844 1447 0
-766 845 -1446 0
766 845 -846 0
-766 -845 1446 0
766 -845 846 0
846 847 747 851 0
846 847 747 -850 0
-747 -846 0
-846 -847 0
-846 850 -851 0
847 -849 -877 979 0
847 848 877 979 0
-847 -979 0
-847 849 -877 0
-847 -848 877 0
848 -1443 -732 0
-848 1443 0
732 -848 0
-773 849 1444 0
773 848 849 0
-773 -849 -1444 0
773 -848 -849 0
-771 849 850 0
771 -850 0
-849 -850 0
769 851 -979 0
851 -979 1445 0
-851 979 0
-769 -851 -1445 0
845 852 -898 0
778 846 852 0
845 846 852 0
778 852 -898 0
-778 -845 -852 0
-846 -852 898 0
-780 853 1742 0
-853 -1742 0
780 -853 0
855 -731 854 0
-843 2250 854 -731 0
843 -2250 854 -731 0
731 -854 0
843 -854 -855 2250 0
-843 -854 -855 -2250 0
-780 855 -856 -2613 0
780 855 -856 2613 0
-855 856 0
780 -2613 -855 0
-780 2613 -855 0
762 856 -814 -857 2476 0
-762 856 -814 -857 -2476 0
-856 857 0
762 -2476 -856 0
814 -856 0
-762 2476 -856 0
857 -858 -859 2255 0
-790 857 -858 -859 0
-857 859 0
-857 858 0
790 -2255 -857 0
-841 858 2235 0
841 858 -2235 0
-841 -2235 -858 0
841 2235 -858 0
804 859 -2255 2605 0
790 -804 859 -2605 0
-804 859 -2255 -2605 0
790 804 859 2605 0
-804 2605 -859 0
804 -2605 -859 0
-790 2255 -859 0
-843 860 -731 0
759 860 -731 0
-853 860 -731 0
731 -860 0
-759 843 853 -860 0
-804 861 -731 0
861 862 -731 0
760 861 -731 0
731 -861 0
-760 804 -861 -862 0
-812 853 862 0
812 -862 0
-853 -862 0
-790 863 -731 0
863 864 -731 0
-853 863 -731 0
731 -863 0
790 853 -863 -864 0
779 864 -865 0
-779 -864 0
-864 865 0
761 -813 865 0
-761 -865 0
813 -865 0
-780 866 -731 0
865 866 -731 0
731 -866 0
780 -865 -866 0
-762 867 -731 0
813 867 -731 0
731 -867 0
762 -813 -867 0
841 868 -731 0
814 868 -731 0
731 -868 0
-841 -868 -814 0
814 869 -731 0
731 -869 0
-814 -869 0
843 870 -731 0
759 870 -731 0
-853 870 -731 0
731 -870 0
-759 -843 853 -870 0
862 871 -731 0
760 871 -731 0
804 871 -731 0
731 -871 0
-760 -804 -862 -871 0
-853 872 -731 0
864 872 -731 0
790 872 -731 0
731 -872 0
-790 853 -864 -872 0
865 873 -731 0
780 873 -731 0
731 -873 0
-780 -865 -873 0
813 874 -731 0
762 874 -731 0
731 -874 0
-762 -813 -874 0
-841 875 -731 0
814 875 -731 0
731 -875 0
841 -875 -814 0
1 730 0
-1 -730 0
2 730 0
-2 -730 0
3 854 0
-3 -854 0
97 -860 0
-97 860 0
98 -861 0
-98 861 0
99 -863 0
-99 863 0
100 -866 0
-100 866 0
102 -867 0
-102 867 0
120 -868 0
-120 868 0
269 -869 0
-269 869 0
460 -870 0
-460 870 0
461 -871 0
-461 871 0
462 -872 0
-462 872 0
463 -873 0
-463 873 0
465 -874 0
-465 874 0
483 -875 0
-483 875 0
632 -869 0
-632 869 0
-97 -460 2712 0
97 -2712 0
460 -2712 0
97 -1379 0
-97 1379 0
-98 -461 2713 0
98 -2713 0
461 -2713 0
98 -1734 0
-98 1734 0
-99 -462 2714 0
99 -2714 0
462 -2714 0
99 -1384 0
-99 1384 0
-100 -463 2715 0
100 -2715 0
463 -2715 0
100 -1742 0
-100 1742 0
-102 -465 2717 0
102 -2717 0
465 -2717 0
102 -1605 0
-102 1605 0
-120 -483 2735 0
120 -2735 0
483 -2735 0
120 -1364 0
-120 1364 0
-269 -632 2884 0
269 -2884 0
632 -2884 0
269 -1162 0
-269 1162 0
-1 0
-2 0
3 0
4 0
5 0
6 0
7 0
8 0
9 0
10 0
11 0
12 0
13 0
14 0
15 0
16 0
17 0
18 0
19 0
20 0
21 0
22 0
23 0
24 0
25 0
26 0
27 0
28 0
29 0
30 0
31 0
32 0
33 0
34 0
35 0
36 0
37 0
38 0
39 0
40 0
41 0
42 0
43 0
44 0
45 0
46 0
47 0
48 0
49 0
50 0
51 0
52 0
53 0
54 0
55 0
56 0
57 0
58 0
59 0
60 0
61 0
62 0
63 0
64 0
65 0
66 0
67 0
68 0
69 0
70 0
71 0
72 0
73 0
74 0
75 0
76 0
77 0
78 0
79 0
80 0
81 0
82 0
83 0
84 0
85 0
86 0
87 0
88 0
89 0
90 0
91 0
92 0
93 0
94 0
95 0
96 0
101 0
103 0
104 0
105 0
106 0
107 0
108 0
109 0
110 0
111 0
112 0
113 0
114 0
115 0
116 0
117 0
118 0
119 0
121 0
122 0
123 0
124 0
125 0
126 0
127 0
128 0
129 0
130 0
131 0
132 0
133 0
134 0
135 0
136 0
137 0
138 0
139 0
140 0
141 0
142 0
143 0
144 0
145 0
146 0
147 0
148 0
149 0
150 0
151 0
152 0
153 0
154 0
155 0
156 0
157 0
158 0
159 0
160 0
161 0
162 0
163 0
164 0
165 0
166 0
167 0
168 0
169 0
170 0
171 0
172 0
173 0
174 0
175 0
176 0
177 0
178 0
179 0
180 0
181 0
182 0
183 0
184 0
185 0
186 0
187 0
188 0
189 0
190 0
191 0
192 0
193 0
194 0
195 0
196 0
197 0
198 0
199 0
200 0
201 0
202 0
203 0
204 0
205 0
206 0
207 0
208 0
209 0
210 0
211 0
212 0
213 0
214 0
-215 0
216 0
217 0
218 0
219 0
220 0
221 0
222 0
223 0
224 0
225 0
226 0
227 0
228 0
229 0
230 0
231 0
232 0
233 0
234 0
235 0
236 0
237 0
238 0
239 0
240 0
241 0
242 0
243 0
244 0
245 0
246 0
247 0
248 0
249 0
250 0
251 0
252 0
253 0
254 0
255 0
256 0
257 0
258 0
259 0
260 0
261 0
262 0
263 0
264 0
265 0
266 0
267 0
268 0
-269 0
270 0
271 0
272 0
273 0
274 0
275 0
276 0
277 0
-278 0
279 0
280 0
281 0
282 0
283 0
284 0
285 0
286 0
287 0
288 0
289 0
290 0
291 0
292 0
293 0
294 0
295 0
296 0
297 0
298 0
299 0
300 0
301 0
302 0
303 0
304 0
305 0
-306 0
307 0
308 0
309 0
310 0
311 0
312 0
313 0
314 0
315 0
316 0
317 0
318 0
319 0
320 0
321 0
322 0
323 0
324 0
325 0
326 0
327 0
328 0
329 0
330 0
331 0
332 0
333 0
334 0
335 0
336 0
337 0
338 0
339 0
340 0
341 0
342 0
343 0
344 0
345 0
346 0
347 0
348 0
349 0
350 0
351 0
352 0
353 0
354 0
355 0
356 0
357 0
358 0
359 0
360 0
361 0
362 0
363 0
364 0
365 0
366 0
-367 0
-368 0
-369 0
-370 0
-371 0
-372 0
-373 0
-374 0
-375 0
-376 0
-377 0
-378 0
-379 0
-380 0
-381 0
-382 0
-383 0
-384 0
-385 0
-386 0
-387 0
-388 0
-389 0
-390 0
-391 0
-392 0
-393 0
-394 0
-395 0
-396 0
-397 0
-398 0
-399 0
-400 0
-401 0
-402 0
-403 0
-404 0
-405 0
-406 0
-407 0
-408 0
-409 0
-410 0
-411 0
-412 0
-413 0
-414 0
-415 0
-416 0
-417 0
-418 0
-419 0
-420 0
-421 0
-422 0
-423 0
-424 0
-425 0
-426 0
-427 0
-428 0
-429 0
-430 0
-431 0
-432 0
-433 0
-434 0
-435 0
-436 0
-437 0
-438 0
-439 0
-440 0
-441 0
-442 0
-443 0
-444 0
-445 0
-446 0
-447 0
-448 0
-449 0
-450 0
-451 0
-452 0
-453 0
-454 0
-455 0
-456 0
-457 0
-458 0
-459 0
-464 0
-466 0
-467 0
-468 0
-469 0
-470 0
-471 0
-472 0
-473 0
-474 0
-475 0
-476 0
-477 0
-478 0
-479 0
-480 0
-481 0
-482 0
-484 0
-485 0
-486 0
-487 0
-488 0
-489 0
-490 0
-491 0
-492 0
-493 0
-494 0
-495 0
-496 0
-497 0
-498 0
-499 0
-500 0
-501 0
-502 0
-503 0
-504 0
-505 0
-506 0
-507 0
-508 0
-509 0
-510 0
-511 0
-512 0
-513 0
-514 0
-515 0
-516 0
-517 0
-518 0
-519 0
-520 0
-521 0
-522 0
-523 0
-524 0
-525 0
-526 0
-527 0
-528 0
-529 0
-530 0
-531 0
-532 0
-533 0
-534 0
-535 0
-536 0
-537 0
-538 0
-539 0
-540 0
-541 0
-542 0
-543 0
-544 0
-545 0
-546 0
-547 0
-548 0
-549 0
-550 0
-551 0
-552 0
-553 0
-554 0
-555 0
-556 0
-557 0
-558 0
-559 0
-560 0
-561 0
-562 0
-563 0
-564 0
-565 0
-566 0
-567 0
-568 0
-569 0
-570 0
-571 0
-572 0
-573 0
-574 0
-575 0
-576 0
-577 0
578 0
-579 0
-580 0
-581 0
-582 0
-583 0
-584 0
-585 0
-586 0
-587 0
-588 0
-589 0
-590 0
-591 0
-592 0
-593 0
-594 0
-595 0
-596 0
-597 0
-598 0
-599 0
-600 0
-601 0
-602 0
-603 0
-604 0
-605 0
-606 0
-607 0
-608 0
-609 0
-610 0
-611 0
-612 0
-613 0
-614 0
-615 0
-616 0
-617 0
-618 0
-619 0
-620 0
-621 0
-622 0
-623 0
-624 0
-625 0
-626 0
-627 0
-628 0
-629 0
-630 0
-631 0
-632 0
-633 0
-634 0
-635 0
-636 0
-637 0
-638 0
-639 0
-640 0
641 0
-642 0
-643 0
-644 0
-645 0
-646 0
-647 0
-648 0
-649 0
-650 0
-651 0
-652 0
-653 0
-654 0
-655 0
-656 0
-657 0
-658 0
-659 0
-660 0
-661 0
-662 0
-663 0
-664 0
-665 0
-666 0
-667 0
-668 0
669 0
-670 0
-671 0
-672 0
-673 0
-674 0
-675 0
-676 0
-677 0
-678 0
-679 0
-680 0
-681 0
-682 0
-683 0
-684 0
-685 0
-686 0
-687 0
-688 0
-689 0
-690 0
-691 0
-692 0
-693 0
-694 0
-695 0
-696 0
-697 0
-698 0
-699 0
-700 0
-701 0
-702 0
-703 0
-704 0
-705 0
-706 0
-707 0
-708 0
-709 0
-710 0
-711 0
-712 0
-713 0
-714 0
-715 0
-716 0
-717 0
-718 0
-719 0
-720 0
-721 0
-722 0
-723 0
-724 0
-725 0
-726 0
-727 0
-728 0
-729 0
730 0
731 0
732 0
733 0
-734 0
-738 0
-742 0
746 0
-747 0
753 0
754 0
755 0
756 0
758 0
814 0
-823 0
831 0
839 0
-854 0
855 0
856 0
857 0
858 0
859 0
-869 0
1073 0
1078 0
1097 0
1098 0
1099 0
1100 0
1101 0
1102 0
1103 0
1104 0
1105 0
-1106 0
1107 0
1108 0
1109 0
1110 0
1111 0
1112 0
1113 0
1114 0
1115 0
1116 0
1117 0
1118 0
1119 0
1120 0
1121 0
1122 0
1123 0
1124 0
1125 0
1126 0
1127 0
1128 0
1129 0
1130 0
1131 0
1132 0
1133 0
-1134 0
1135 0
1136 0
1137 0
1138 0
1139 0
1140 0
1141 0
1142 0
1143 0
1144 0
1145 0
1146 0
1147 0
1148 0
1149 0
1150 0
1151 0
1152 0
1153 0
1154 0
1155 0
1156 0
1157 0
1158 0
1159 0
1160 0
1161 0
-1162 0
1163 0
1164 0
1165 0
1166 0
1167 0
1168 0
1169 0
1170 0
1171 0
1172 0
1173 0
1174 0
1175 0
1176 0
1177 0
1178 0
1179 0
1180 0
1181 0
1182 0
1183 0
1184 0
1185 0
1186 0
1187 0
1188 0
1189 0
1190 0
1191 0
1192 0
1193 0
1194 0
1195 0
1196 0
1197 0
1198 0
1199 0
1200 0
1201 0
1202 0
1203 0
1204 0
1205 0
1206 0
1207 0
1208 0
1209 0
1210 0
1211 0
1212 0
1213 0
1214 0
1215 0
1216 0
1217 0
1218 0
1219 0
1220 0
1221 0
1222 0
1223 0
1224 0
1225 0
1226 0
1227 0
1228 0
1229 0
1230 0
1231 0
1232 0
1233 0
1234 0
1235 0
1236 0
1237 0
1238 0
1239 0
1240 0
1241 0
1242 0
1243 0
1244 0
1245 0
1246 0
1247 0
1248 0
1249 0
1250 0
1251 0
1252 0
1253 0
1254 0
1255 0
1256 0
1257 0
1258 0
1259 0
1260 0
1261 0
1262 0
1263 0
1264 0
1265 0
1266 0
1267 0
1268 0
1269 0
1270 0
1271 0
1272 0
1273 0
1274 0
1275 0
1276 0
1277 0
1278 0
1279 0
1280 0
1281 0
1282 0
1283 0
1284 0
1285 0
1286 0
1287 0
1288 0
1289 0
1290 0
1291 0
1292 0
1293 0
1294 0
1295 0
1296 0
1297 0
1298 0
1299 0
1300 0
1301 0
1302 0
1303 0
1304 0
1305 0
1306 0
1307 0
1308 0
1309 0
1310 0
1311 0
1312 0
1313 0
1314 0
1315 0
1316 0
1317 0
1318 0
1319 0
1320 0
1321 0
1322 0
1323 0
1324 0
1325 0
1326 0
1327 0
1328 0
1329 0
1330 0
1331 0
1332 0
1333 0
1334 0
1335 0
1336 0
1337 0
1338 0
1339 0
1340 0
1341 0
1342 0
1343 0
1344 0
1345 0
1346 0
1347 0
1348 0
1349 0
1350 0
1351 0
1352 0
1353 0
1354 0
1355 0
1356 0
1357 0
1358 0
1359 0
1360 0
1361 0
1362 0
1363 0
1365 0
1366 0
1367 0
1368 0
1369 0
1370 0
1371 0
1372 0
1373 0
1374 0
1375 0
1376 0
1377 0
1378 0
1380 0
1381 0
1382 0
1383 0
1385 0
1386 0
1387 0
1388 0
1389 0
1390 0
1391 0
1397 0
1477 0
1512 0
1566 0
-1600 0
1601 0
1602 0
1603 0
1604 0
1606 0
1607 0
1608 0
1609 0
1610 0
1611 0
1612 0
1613 0
1614 0
1615 0
1616 0
1617 0
1618 0
1619 0
1620 0
1621 0
1622 0
1623 0
1624 0
1625 0
1626 0
1627 0
1628 0
1629 0
1630 0
1631 0
1632 0
1633 0
1634 0
1635 0
1636 0
1637 0
1638 0
1639 0
1640 0
1641 0
1642 0
1643 0
1644 0
1645 0
1646 0
1647 0
1648 0
1649 0
1650 0
1651 0
1652 0
1653 0
1657 0
1686 0
1698 0
1727 0
1733 0
1735 0
1736 0
1737 0
1738 0
1739 0
1740 0
1741 0
1743 0
1744 0
1745 0
1746 0
2618 0
-2619 0
-2620 0
-2621 0
-2622 0
-2623 0
-2624 0
-2625 0
-2626 0
-2627 0
-2628 0
-2629 0
-2630 0
-2631 0
-2632 0
-2633 0
-2634 0
-2635 0
-2636 0
-2637 0
-2638 0
-2639 0
-2640 0
-2641 0
-2642 0
-2643 0
-2644 0
-2645 0
-2646 0
-2647 0
-2648 0
-2649 0
-2650 0
-2651 0
-2652 0
-2653 0
-2654 0
-2655 0
-2656 0
-2657 0
-2658 0
-2659 0
-2660 0
-2661 0
-2662 0
-2663 0
-2664 0
-2665 0
-2666 0
-2667 0
-2668 0
-2669 0
-2670 0
-2671 0
-2672 0
-2673 0
-2674 0
-2675 0
-2676 0
-2677 0
-2678 0
-2679 0
-2680 0
-2681 0
-2682 0
-2683 0
-2684 0
-2685 0
-2686 0
-2687 0
-2688 0
-2689 0
-2690 0
-2691 0
-2692 0
-2693 0
-2694 0
-2695 0
-2696 0
-2697 0
-2698 0
-2699 0
-2700 0
-2701 0
-2702 0
-2703 0
-2704 0
-2705 0
-2706 0
-2707 0
-2708 0
-2709 0
-2710 0
-2711 0
-2716 0
-2718 0
-2719 0
-2720 0
-2721 0
-2722 0
-2723 0
-2724 0
-2725 0
-2726 0
-2727 0
-2728 0
-2729 0
-2730 0
-2731 0
-2732 0
-2733 0
-2734 0
-2736 0
-2737 0
-2738 0
-2739 0
-2740 0
-2741 0
-2742 0
-2743 0
-2744 0
-2745 0
-2746 0
-2747 0
-2748 0
-2749 0
-2750 0
-2751 0
-2752 0
-2753 0
-2754 0
-2755 0
-2756 0
-2757 0
-2758 0
-2759 0
-2760 0
-2761 0
-2762 0
-2763 0
-2764 0
-2765 0
-2766 0
-2767 0
-2768 0
-2769 0
-2770 0
-2771 0
-2772 0
-2773 0
-2774 0
-2775 0
-2776 0
-2777 0
-2778 0
-2779 0
-2780 0
-2781 0
-2782 0
-2783 0
-2784 0
-2785 0
-2786 0
-2787 0
-2788 0
-2789 0
-2790 0
-2791 0
-2792 0
-2793 0
-2794 0
-2795 0
-2796 0
-2797 0
-2798 0
-2799 0
-2800 0
-2801 0
-2802 0
-2803 0
-2804 0
-2805 0
-2806 0
-2807 0
-2808 0
-2809 0
-2810 0
-2811 0
-2812 0
-2813 0
-2814 0
-2815 0
-2816 0
-2817 0
-2818 0
-2819 0
-2820 0
-2821 0
-2822 0
-2823 0
-2824 0
-2825 0
-2826 0
-2827 0
-2828 0
-2829 0
-2830 0
-2831 0
-2832 0
-2833 0
-2834 0
-2835 0
-2836 0
-2837 0
-2838 0
-2839 0
-2840 0
-2841 0
-2842 0
-2843 0
-2844 0
-2845 0
-2846 0
-2847 0
-2848 0
-2849 0
-2850 0
-2851 0
-2852 0
-2853 0
-2854 0
-2855 0
-2856 0
-2857 0
-2858 0
-2859 0
-2860 0
-2861 0
-2862 0
-2863 0
-2864 0
-2865 0
-2866 0
-2867 0
-2868 0
-2869 0
-2870 0
-2871 0
-2872 0
-2873 0
-2874 0
-2875 0
-2876 0
-2877 0
-2878 0
-2879 0
-2880 0
-2881 0
-2882 0
-2883 0
-2884 0
-2885 0
-2886 0
-2887 0
-2888 0
-2889 0
-2890 0
-2891 0
-2892 0
-2893 0
-2894 0
-2895 0
-2896 0
-2897 0
-2898 0
-2899 0
-2900 0
-2901 0
-2902 0
-2903 0
-2904 0
-2905 0
-2906 0
-2907 0
-2908 0
-2909 0
-2910 0
-2911 0
-2912 0
-2913 0
-2914 0
-2915 0
-2916 0
-2917 0
-2918 0
-2919 0
-2920 0
-2921 0
-2922 0
-2923 0
-2924 0
-2925 0
-2926 0
-2927 0
-2928 0
-2929 0
-2930 0
-2931 0
-2932 0
-2933 0
-2934 0
-2935 0
-2936 0
-2937 0
-2938 0
-2939 0
-2940 0
-2941 0
-2942 0
-2943 0
-2944 0
-2945 0
-2946 0
-2947 0
-2948 0
-2949 0
-2950 0
-2951 0
-2952 0
-2953 0
-2954 0
-2955 0
-2956 0
-2957 0
-2958 0
-2959 0
-2960 0
-2961 0
-2962 0
-2963 0
-2964 0
-2965 0
-2966 0
-2967 0
-2968 0
-2969 0
-2970 0
-2971 0
-2972 0
-2973 0
-2974 0
-2975 0
-2976 0
-2977 0
-2978 0
-2979 0
-2980 0
-2981 0
-2423 0
-2424 0
-2425 0
-2426 0
-2427 0
-2428 0
-2429 0
-2430 0
-2431 0
-2432 0
-2433 0
-2434 0
-2435 0
-2436 0
-2437 0
-2438 0
-2439 0
-2440 0
-2441 0
-2442 0
-2443 0
-2444 0
-2445 0
-2446 0
-2447 0
-2448 0
-2449 0
-2450 0
-2451 0
-2452 0
-2453 0
-2454 0
-2558 0
-2559 0
-2560 0
-2561 0
-2562 0
-2563 0
-2564 0
-2565 0
-2566 0
-2567 0
-2568 0
-2569 0
-2570 0
-2571 0
-2572 0
-2573 0
-2574 0
-2575 0
-2576 0
-2577 0
-2578 0
-2579 0
-2580 0
-2581 0
-2582 0
-2583 0
-2584 0
-2585 0
-2586 0
-2587 0
-2588 0
-2589 0
-2590 0
-2591 0
-2592 0
-2593 0
-2594 0
-2595 0
-2596 0
-2597 0
-2598 0
-2599 0
-2600 0
-2601 0
-2602 0
-2603 0
-2325 0
-2326 0
-2327 0
-2328 0
-2329 0
-2330 0
-2331 0
-2332 0
-2333 0
-2334 0
-2335 0
-2336 0
-2337 0
-2338 0
-2339 0
-2340 0
-2341 0
-2342 0
-2343 0
-2344 0
-2345 0
-2346 0
-2347 0
-2348 0
-2349 0
-2350 0
-2351 0
-2352 0
-2353 0
-2354 0
-2355 0
-2356 0
-2357 0
-2358 0
-2359 0
-2360 0
-2361 0
-2362 0
-2363 0
-2364 0
-2365 0
-2366 0
-2367 0
-2368 0
-2369 0
-2370 0
-2371 0
-2372 0
-2373 0
-2374 0
-2375 0
-2376 0
-2268 0
-2269 0
-2270 0
-2271 0
-2272 0
-2273 0
-2274 0
-2275 0
-2276 0
-2277 0
-2278 0
-2279 0
-2280 0
-2281 0
-2282 0
-2283 0
-2284 0
-2285 0
-2286 0
-2287 0
-2288 0
-2289 0
-2290 0
-2291 0
-2292 0
-2293 0
-2294 0
-2295 0
-2296 0
-2297 0
-2298 0
-2299 0
-2300 0
-2301 0
-2302 0
-2303 0
-1850 0
-2304 0
-2305 0
-1796 0
-1797 0
-2263 0
-2264 0
-2265 0
-2266 0
-2267 0
-1853 0
-1854 0
-1855 0
-1856 0
-1857 0
-1858 0
-1859 0
-1860 0
-1861 0
-1862 0
-1863 0
-1864 0
-1865 0
-1866 0
-2306 0
-2307 0
-1867 0
-1868 0
-2308 0
-2309 0
-1869 0
-1870 0
-1871 0
-1872 0
-1873 0
-1874 0
-1875 0
-1922 0
-1923 0
-1924 0
-1925 0
-1926 0
-1927 0
-1928 0
-1851 0
-1929 0
-1930 0
-2310 0
-1931 0
-2311 0
-1932 0
-1933 0
-2312 0
-1934 0
-2313 0
-1935 0
-1936 0
-1937 0
-1938 0
-1939 0
-1940 0
-1941 0
-1942 0
-1943 0
-1944 0
-1899 0
-2314 0
-1900 0
-1901 0
-1902 0
-1903 0
-1904 0
-2315 0
-1905 0
-1906 0
-2316 0
-1907 0
-1908 0
-2317 0
-1909 0
-2318 0
-1910 0
-1911 0
-1912 0
-1913 0
-1914 0
-1915 0
-1916 0
-1917 0
-1918 0
-1919 0
-1920 0
-1921 0
-1945 0
-2319 0
-1946 0
-1852 0
-1947 0
-1948 0
-2320 0
-1949 0
-2321 0
-1950 0
-1951 0
-1952 0
-2322 0
-1953 0
-2323 0
-1954 0
-1955 0
-1956 0
-1957 0
-1958 0
-1959 0
-1960 0
-1961 0
-1962 0
-1963 0
-1964 0
-1965 0
-1966 0
-1967 0
-1876 0
-1877 0
-1878 0
-1879 0
-2324 0
-1880 0
-2455 0
-1881 0
-1882 0
-1883 0
-2456 0
-2457 0
-1884 0
-1885 0
-1886 0
-1887 0
-1888 0
-1889 0
-1890 0
-1891 0
-1892 0
-1893 0
-2458 0
-1894 0
-1793 0
-1895 0
-1896 0
-1897 0
-1898 0
-1770 0
-1771 0
-2459 0
-1772 0
-2460 0
-1773 0
-1774 0
-2461 0
-2462 0
-1775 0
-1776 0
-1777 0
-1778 0
-1779 0
-1780 0
-1781 0
-1782 0
-2463 0
-1783 0
-2464 0
-1784 0
-1785 0
-1786 0
-2465 0
-1787 0
-1788 0
-1789 0
-1790 0
-1791 0
-1792 0
-1798 0
-1799 0
-1800 0
-1801 0
-1802 0
-1803 0
-1804 0
-1805 0
-2466 0
-1806 0
-1807 0
-1808 0
-1809 0
-2467 0
-1810 0
-2468 0
-1811 0
-2469 0
-1812 0
-2470 0
-1813 0
-1814 0
-1815 0
-1816 0
-1817 0
-1818 0
-1819 0
-1820 0
-1747 0
-1748 0
-1749 0
-1750 0
-1751 0
-1752 0
-1753 0
-1754 0
-1755 0
-1756 0
-1757 0
-1758 0
-1759 0
-1760 0
-1761 0
-1762 0
-1763 0
-1764 0
-1765 0
-1766 0
-1767 0
-1794 0
-1768 0
-1769 0
-1821 0
-1822 0
-1823 0
-1824 0
-1825 0
-1826 0
-1827 0
-1828 0
-1829 0
-1830 0
-1831 0
-1832 0
-1833 0
-1834 0
-1835 0
-1836 0
-1837 0
-1838 0
-1839 0
-1840 0
-1841 0
-1842 0
-1843 0
-1844 0
-1845 0
-1846 0
-1847 0
-1848 0
-1849 0
-2377 0
-2378 0
-2379 0
-2380 0
-2381 0
-2382 0
-2383 0
-2384 0
-1795 0
-2385 0
-2386 0
-2387 0
-2388 0
-2389 0
-2390 0
-2391 0
-2392 0
-2393 0
-2394 0
-2395 0
-2396 0
-2397 0
-2398 0
-2399 0
-2400 0
-2401 0
-2402 0
-2403 0
-2404 0
-2405 0
-2406 0
-2407 0
-2408 0
-2525 0
-2526 0
-2527 0
-2528 0
-2529 0
-2530 0
-2531 0
-2532 0
-2533 0
-2534 0
-2535 0
-2536 0
-2537 0
-2538 0
-2539 0
-2540 0
-2541 0
-2542 0
-2543 0
-2544 0
-2545 0
-2546 0
-2547 0
-2548 0
-2549 0
-2550 0
-2551 0
-2552 0
-2553 0
-2554 0
-2555 0
-2556 0
-2557 0
-2409 0
-2410 0
-2411 0
-2412 0
-2413 0
-2414 0
-2415 0
-2416 0
-2417 0
-2418 0
-2419 0
-2420 0
-2421 0
-2422 0

